(set-logic HORN)

(declare-datatypes ((Nat_0 0)) (((zero_0 ) (succ_0  (p_0 Nat_0)))))

(declare-fun |diseqNat_0| ( Nat_0 Nat_0 ) Bool)
(declare-fun |plus_0| ( Nat_0 Nat_0 Nat_0 ) Bool)
(declare-fun |times_0| ( Nat_0 Nat_0 Nat_0 ) Bool)
(declare-fun |CHC_COMP_FALSE| ( ) Bool)
(declare-fun |op_0| ( Nat_0 Nat_0 Nat_0 Nat_0 Nat_0 ) Bool)

(assert
  (forall ( (A Nat_0) (B Nat_0) (v_2 Nat_0) ) 
    (=>
      (and
        (and (= A (succ_0 B)) (= v_2 zero_0))
      )
      (diseqNat_0 v_2 A)
    )
  )
)
(assert
  (forall ( (A Nat_0) (B Nat_0) (v_2 Nat_0) ) 
    (=>
      (and
        (and (= A (succ_0 B)) (= v_2 zero_0))
      )
      (diseqNat_0 A v_2)
    )
  )
)
(assert
  (forall ( (A Nat_0) (B Nat_0) (C Nat_0) (D Nat_0) ) 
    (=>
      (and
        (diseqNat_0 C D)
        (and (= B (succ_0 C)) (= A (succ_0 D)))
      )
      (diseqNat_0 B A)
    )
  )
)
(assert
  (forall ( (A Nat_0) (B Nat_0) (C Nat_0) (D Nat_0) (E Nat_0) ) 
    (=>
      (and
        (plus_0 C D E)
        (and (= B (succ_0 C)) (= A (succ_0 D)))
      )
      (plus_0 B A E)
    )
  )
)
(assert
  (forall ( (A Nat_0) (v_1 Nat_0) (v_2 Nat_0) ) 
    (=>
      (and
        (and true (= v_1 zero_0) (= v_2 A))
      )
      (plus_0 A v_1 v_2)
    )
  )
)
(assert
  (forall ( (A Nat_0) (B Nat_0) (C Nat_0) (D Nat_0) (E Nat_0) ) 
    (=>
      (and
        (plus_0 B E C)
        (times_0 C D E)
        (= A (succ_0 D))
      )
      (times_0 B A E)
    )
  )
)
(assert
  (forall ( (A Nat_0) (v_1 Nat_0) (v_2 Nat_0) ) 
    (=>
      (and
        (and true (= v_1 zero_0) (= v_2 zero_0))
      )
      (times_0 v_1 v_2 A)
    )
  )
)
(assert
  (forall ( (A Nat_0) (B Nat_0) (C Nat_0) (D Nat_0) (E Nat_0) (F Nat_0) (G Nat_0) ) 
    (=>
      (and
        (op_0 C E F D A)
        (and (= A (succ_0 G)) (= B (succ_0 D)))
      )
      (op_0 C E F B G)
    )
  )
)
(assert
  (forall ( (A Nat_0) (B Nat_0) (C Nat_0) (D Nat_0) (E Nat_0) (v_5 Nat_0) (v_6 Nat_0) ) 
    (=>
      (and
        (op_0 B C D v_5 E)
        (and (= v_5 D) (= A (succ_0 C)) (= v_6 zero_0))
      )
      (op_0 B A D v_6 E)
    )
  )
)
(assert
  (forall ( (A Nat_0) (B Nat_0) (v_2 Nat_0) (v_3 Nat_0) (v_4 Nat_0) ) 
    (=>
      (and
        (and true (= v_2 zero_0) (= v_3 zero_0) (= v_4 A))
      )
      (op_0 A v_2 B v_3 v_4)
    )
  )
)
(assert
  (forall ( (A Nat_0) (B Nat_0) (C Nat_0) (D Nat_0) (E Nat_0) (F Nat_0) (G Nat_0) (H Nat_0) ) 
    (=>
      (and
        (times_0 B E F)
        (plus_0 D C H)
        (plus_0 C B G)
        (diseqNat_0 A D)
        (op_0 A E F G H)
        true
      )
      CHC_COMP_FALSE
    )
  )
)
(assert
  (forall ( (A Nat_0) (B Nat_0) (C Nat_0) (D Nat_0) (E Nat_0) (F Nat_0) (G Nat_0) ) 
    (=>
      (and
        (times_0 B E A)
        (times_0 D C G)
        (times_0 C E F)
        (diseqNat_0 B D)
        (times_0 A F G)
        true
      )
      CHC_COMP_FALSE
    )
  )
)
(assert
  (forall ( (A Nat_0) (B Nat_0) (C Nat_0) (D Nat_0) (E Nat_0) (F Nat_0) (G Nat_0) ) 
    (=>
      (and
        (plus_0 B E A)
        (plus_0 D C G)
        (plus_0 C E F)
        (diseqNat_0 B D)
        (plus_0 A F G)
        true
      )
      CHC_COMP_FALSE
    )
  )
)
(assert
  (forall ( (A Nat_0) (B Nat_0) (C Nat_0) (D Nat_0) ) 
    (=>
      (and
        (diseqNat_0 A B)
        (times_0 B D C)
        (times_0 A C D)
        true
      )
      CHC_COMP_FALSE
    )
  )
)
(assert
  (forall ( (A Nat_0) (B Nat_0) (C Nat_0) (D Nat_0) ) 
    (=>
      (and
        (diseqNat_0 A B)
        (plus_0 B D C)
        (plus_0 A C D)
        true
      )
      CHC_COMP_FALSE
    )
  )
)
(assert
  (forall ( (A Nat_0) (B Nat_0) (C Nat_0) (D Nat_0) (E Nat_0) (F Nat_0) (G Nat_0) (H Nat_0) ) 
    (=>
      (and
        (times_0 C F G)
        (plus_0 E C D)
        (times_0 D F H)
        (diseqNat_0 B E)
        (plus_0 A G H)
        (times_0 B F A)
        true
      )
      CHC_COMP_FALSE
    )
  )
)
(assert
  (forall ( (A Nat_0) (B Nat_0) (C Nat_0) (D Nat_0) (E Nat_0) (F Nat_0) (G Nat_0) (H Nat_0) ) 
    (=>
      (and
        (times_0 C F H)
        (plus_0 E C D)
        (times_0 D G H)
        (diseqNat_0 B E)
        (plus_0 A F G)
        (times_0 B A H)
        true
      )
      CHC_COMP_FALSE
    )
  )
)
(assert
  (forall ( (A Nat_0) (B Nat_0) (v_2 Nat_0) ) 
    (=>
      (and
        (diseqNat_0 A B)
        (times_0 A B v_2)
        (= v_2 (succ_0 zero_0))
      )
      CHC_COMP_FALSE
    )
  )
)
(assert
  (forall ( (A Nat_0) (B Nat_0) (v_2 Nat_0) ) 
    (=>
      (and
        (diseqNat_0 A B)
        (times_0 A v_2 B)
        (= v_2 (succ_0 zero_0))
      )
      CHC_COMP_FALSE
    )
  )
)
(assert
  (forall ( (A Nat_0) (B Nat_0) (v_2 Nat_0) ) 
    (=>
      (and
        (diseqNat_0 A B)
        (plus_0 A B v_2)
        (= v_2 zero_0)
      )
      CHC_COMP_FALSE
    )
  )
)
(assert
  (forall ( (A Nat_0) (B Nat_0) (v_2 Nat_0) ) 
    (=>
      (and
        (diseqNat_0 A B)
        (plus_0 A v_2 B)
        (= v_2 zero_0)
      )
      CHC_COMP_FALSE
    )
  )
)
(assert
  (forall ( (A Nat_0) (B Nat_0) (v_2 Nat_0) (v_3 Nat_0) ) 
    (=>
      (and
        (diseqNat_0 A v_2)
        (times_0 A B v_3)
        (and (= v_2 zero_0) (= v_3 zero_0))
      )
      CHC_COMP_FALSE
    )
  )
)
(assert
  (forall ( (A Nat_0) (B Nat_0) (v_2 Nat_0) (v_3 Nat_0) ) 
    (=>
      (and
        (diseqNat_0 A v_2)
        (times_0 A v_3 B)
        (and (= v_2 zero_0) (= v_3 zero_0))
      )
      CHC_COMP_FALSE
    )
  )
)
(assert
  (forall ( (CHC_COMP_UNUSED Bool) ) 
    (=>
      (and
        CHC_COMP_FALSE
      )
      false
    )
  )
)

(check-sat)
(exit)
